db/data/3254521355671320738661618327911028192.z3.out
-------------------
2500.341146391
